(declare-fun _substvar_470_ () Bool)
(declare-fun _substvar_556_ () Bool)
(declare-fun _substvar_591_ () (_ BitVec 27))
(declare-fun _substvar_619_ () (_ BitVec 1))
(declare-const v4 Bool)
(declare-const v23 Bool)
(declare-const v27 Bool)
(assert (= v23 (xor true (xor true v27 v27 (bvule _substvar_591_ (_ bv0 27)) true true false false v27) true (or (not v4) _substvar_470_) true) (= ((_ extract 3 3) (bvnand (_ bv0 7) (_ bv0 7))) _substvar_619_ ((_ extract 3 3) (bvnand (_ bv0 7) (_ bv0 7))) ((_ extract 3 3) (bvnand (_ bv0 7) (_ bv0 7))))))
(assert _substvar_556_)
(check-sat)
